(set-logic QF_S)
(declare-fun var0 () String)
(declare-fun var1 () String)
(declare-fun var2 () String)
(declare-fun var3 () Int)
(declare-fun var4 () String)
(declare-fun var5 () Int)
(declare-fun var6 () Int)
(declare-fun var7 () Int)
(assert (> (str.to.int var0) (str.indexof var1 var2 var3)))
(assert (str.suffixof (str.at var4 var5) (str.at var2 var6)))
(assert (<= var7 var5))
(assert (str.in.re (str.substr (str.replace var0 "<" var4) (str.indexof var4 var0 var7) (str.to.int var1)) (re.* (re.+ re.allchar))))
(check-sat)